(declare-fun x () String)

(assert (str.in.re x (re.++  (str.to.re "\x4e01") (re.++  (str.to.re "\x4e02") (re.++  (str.to.re "\x4e03") (re.++  (str.to.re "\x4e04") (re.++  (str.to.re "\x4e05") (re.++  (str.to.re "\x4e06") (re.++  (str.to.re "\x4e07") (re.++  (str.to.re "\x4e08") (re.++  (str.to.re "\x4e09") (re.++  (str.to.re "\x4e0a") (re.++  (str.to.re "\x4e0b") (re.++  (str.to.re "\x4e0c") (re.++  (str.to.re "\x4e0d") (re.++  (str.to.re "\x4e0e") (re.++  (str.to.re "\x4e0f") (re.++  (str.to.re "\x4e10") (re.++  (str.to.re "\x4e11") (re.++  (str.to.re "\x4e12") (re.++  (str.to.re "\x4e13") (re.++  (str.to.re "\x4e14") (re.++  (str.to.re "\x4e15") (re.++  (str.to.re "\x4e16") (re.++  (str.to.re "\x4e17") (re.++  (str.to.re "\x4e18") (re.++  (str.to.re "\x4e19") (re.++  (str.to.re "\x4e1a") (re.++  (str.to.re "\x4e1b") (re.++  (str.to.re "\x4e1c") (re.++  (str.to.re "\x4e1d") (re.++  (str.to.re "\x4e1e") (re.++  (str.to.re "\x4e1f") (re.++  (str.to.re "\x4e20") (re.++  (str.to.re "\x4e21") (re.++  (str.to.re "\x4e22") (re.++  (str.to.re "\x4e23") (re.++  (str.to.re "\x4e24") (re.++  (str.to.re "\x4e25") (re.++  (str.to.re "\x4e26") (re.++  (str.to.re "\x4e27") (re.++  (str.to.re "\x4e28") (re.++  (str.to.re "\x4e29") (re.++  (str.to.re "\x4e2a") (re.++  (str.to.re "\x4e2b") (re.++  (str.to.re "\x4e2c") (re.++  (str.to.re "\x4e2d") (re.++  (str.to.re "\x4e2e") (re.++  (str.to.re "\x4e2f") (re.++  (str.to.re "\x4e30") (re.++  (str.to.re "\x4e31") (re.++  (str.to.re "\x4e32") (re.++  (str.to.re "\x4e33") (re.++  (str.to.re "\x4e34") (re.++  (str.to.re "\x4e35") (re.++  (str.to.re "\x4e36") (re.++  (str.to.re "\x4e37") (re.++  (str.to.re "\x4e38") (re.++  (str.to.re "\x4e39") (re.++  (str.to.re "\x4e3a") (re.++  (str.to.re "\x4e3b") (re.++  (str.to.re "\x4e3c") (re.++  (str.to.re "\x4e3d") (re.++  (str.to.re "\x4e3e") (re.++  (str.to.re "\x4e3f") (re.++  (str.to.re "\x4e40") (re.++  (str.to.re "\x4e41") (re.++  (str.to.re "\x4e42") (re.++  (str.to.re "\x4e43") (re.++  (str.to.re "\x4e44") (re.++  (str.to.re "\x4e45") (re.++  (str.to.re "\x4e46") (re.++  (str.to.re "\x4e47") (re.++  (str.to.re "\x4e48") (re.++  (str.to.re "\x4e49") (re.++  (str.to.re "\x4e4a") (re.++  (str.to.re "\x4e4b") (re.++  (str.to.re "\x4e4c") (re.++  (str.to.re "\x4e4d") (re.++  (str.to.re "\x4e4e") (re.++  (str.to.re "\x4e4f") (re.++  (str.to.re "\x4e50") (re.++  (str.to.re "\x4e51") (re.++  (str.to.re "\x4e52") (re.++  (str.to.re "\x4e53") (re.++  (str.to.re "\x4e54") (re.++  (str.to.re "\x4e55") (re.++  (str.to.re "\x4e56") (re.++  (str.to.re "\x4e57") (re.++  (str.to.re "\x4e58") (re.++  (str.to.re "\x4e59") (re.++  (str.to.re "\x4e5a") (re.++  (str.to.re "\x4e5b") (re.++  (str.to.re "\x4e5c") (re.++  (str.to.re "\x4e5d") (re.++  (str.to.re "\x4e5e") (re.++  (str.to.re "\x4e5f") (re.++  (str.to.re "\x4e60") (re.++  (str.to.re "\x4e61") (re.++  (str.to.re "\x4e62") (re.++  (str.to.re "\x4e63") (re.++  (str.to.re "\x4e64") (re.++  (str.to.re "\x4e65") (re.++  (str.to.re "\x4e66") (re.++  (str.to.re "\x4e67") (re.++  (str.to.re "\x4e68") (re.++  (str.to.re "\x4e69") (re.++  (str.to.re "\x4e6a") (re.++  (str.to.re "\x4e6b") (re.++  (str.to.re "\x4e6c") (re.++  (str.to.re "\x4e6d") (re.++  (str.to.re "\x4e6e") (re.++  (str.to.re "\x4e6f") (re.++  (str.to.re "\x4e70") (re.++  (str.to.re "\x4e71") (re.++  (str.to.re "\x4e72") (re.++  (str.to.re "\x4e73") (re.++  (str.to.re "\x4e74") (re.++  (str.to.re "\x4e75") (re.++  (str.to.re "\x4e76") (re.++  (str.to.re "\x4e77") (re.++  (str.to.re "\x4e78") (re.++  (str.to.re "\x4e79") (re.++  (str.to.re "\x4e7a") (re.++  (str.to.re "\x4e7b") (re.++  (str.to.re "\x4e7c") (re.++  (str.to.re "\x4e7d") (re.++  (str.to.re "\x4e7e") (re.++  (str.to.re "\x4e7f") (re.++  (str.to.re "\x4e80") (re.++  (str.to.re "\x4e81") (re.++  (str.to.re "\x4e82") (re.++  (str.to.re "\x4e83") (re.++  (str.to.re "\x4e84") (re.++  (str.to.re "\x4e85") (re.++  (str.to.re "\x4e86") (re.++  (str.to.re "\x4e87") (re.++  (str.to.re "\x4e88") (re.++  (str.to.re "\x4e89") (re.++  (str.to.re "\x4e8a") (re.++  (str.to.re "\x4e8b") (re.++  (str.to.re "\x4e8c") (re.++  (str.to.re "\x4e8d") (re.++  (str.to.re "\x4e8e") (re.++  (str.to.re "\x4e8f") (re.++  (str.to.re "\x4e90") (re.++  (str.to.re "\x4e91") (re.++  (str.to.re "\x4e92") (re.++  (str.to.re "\x4e93") (re.++  (str.to.re "\x4e94") (re.++  (str.to.re "\x4e95") (re.++  (str.to.re "\x4e96") (re.++  (str.to.re "\x4e97") (re.++  (str.to.re "\x4e98") (re.++  (str.to.re "\x4e99") (re.++  (str.to.re "\x4e9a") (re.++  (str.to.re "\x4e9b") (re.++  (str.to.re "\x4e9c") (re.++  (str.to.re "\x4e9d") (re.++  (str.to.re "\x4e9e") (re.++  (str.to.re "\x4e9f") (re.++  (str.to.re "\x4ea0") (re.++  (str.to.re "\x4ea1") (re.++  (str.to.re "\x4ea2") (re.++  (str.to.re "\x4ea3") (re.++  (str.to.re "\x4ea4") (re.++  (str.to.re "\x4ea5") (re.++  (str.to.re "\x4ea6") (re.++  (str.to.re "\x4ea7")  (str.to.re "\x4ea8"))))))))))))))))))))))))))))))))))))))))))))))))))))))))))))))))))))))))))))))))))))))))))))))))))))))))))))))))))))))))))))))))))))))))))))))))))))))))))))))))))))))))))
(assert (str.in.re x (re.++ (re.opt  (str.to.re "\x4e01") ) (re.++ (re.opt  (str.to.re "\x4e02") ) (re.++ (re.opt  (str.to.re "\x4e03") ) (re.++ (re.opt  (str.to.re "\x4e04") ) (re.++ (re.opt  (str.to.re "\x4e05") ) (re.++ (re.opt  (str.to.re "\x4e06") ) (re.++ (re.opt  (str.to.re "\x4e07") ) (re.++ (re.opt  (str.to.re "\x4e08") ) (re.++ (re.opt  (str.to.re "\x4e09") ) (re.++ (re.opt  (str.to.re "\x4e0a") ) (re.++ (re.opt  (str.to.re "\x4e0b") ) (re.++ (re.opt  (str.to.re "\x4e0c") ) (re.++ (re.opt  (str.to.re "\x4e0d") ) (re.++ (re.opt  (str.to.re "\x4e0e") ) (re.++ (re.opt  (str.to.re "\x4e0f") ) (re.++ (re.opt  (str.to.re "\x4e10") ) (re.++ (re.opt  (str.to.re "\x4e11") ) (re.++ (re.opt  (str.to.re "\x4e12") ) (re.++ (re.opt  (str.to.re "\x4e13") ) (re.++ (re.opt  (str.to.re "\x4e14") ) (re.++ (re.opt  (str.to.re "\x4e15") ) (re.++ (re.opt  (str.to.re "\x4e16") ) (re.++ (re.opt  (str.to.re "\x4e17") ) (re.++ (re.opt  (str.to.re "\x4e18") ) (re.++ (re.opt  (str.to.re "\x4e19") ) (re.++ (re.opt  (str.to.re "\x4e1a") ) (re.++ (re.opt  (str.to.re "\x4e1b") ) (re.++ (re.opt  (str.to.re "\x4e1c") ) (re.++ (re.opt  (str.to.re "\x4e1d") ) (re.++ (re.opt  (str.to.re "\x4e1e") ) (re.++ (re.opt  (str.to.re "\x4e1f") ) (re.++ (re.opt  (str.to.re "\x4e20") ) (re.++ (re.opt  (str.to.re "\x4e21") ) (re.++ (re.opt  (str.to.re "\x4e22") ) (re.++ (re.opt  (str.to.re "\x4e23") ) (re.++ (re.opt  (str.to.re "\x4e24") ) (re.++ (re.opt  (str.to.re "\x4e25") ) (re.++ (re.opt  (str.to.re "\x4e26") ) (re.++ (re.opt  (str.to.re "\x4e27") ) (re.++ (re.opt  (str.to.re "\x4e28") ) (re.++ (re.opt  (str.to.re "\x4e29") ) (re.++ (re.opt  (str.to.re "\x4e2a") ) (re.++ (re.opt  (str.to.re "\x4e2b") ) (re.++ (re.opt  (str.to.re "\x4e2c") ) (re.++ (re.opt  (str.to.re "\x4e2d") ) (re.++ (re.opt  (str.to.re "\x4e2e") ) (re.++ (re.opt  (str.to.re "\x4e2f") ) (re.++ (re.opt  (str.to.re "\x4e30") ) (re.++ (re.opt  (str.to.re "\x4e31") ) (re.++ (re.opt  (str.to.re "\x4e32") ) (re.++ (re.opt  (str.to.re "\x4e33") ) (re.++ (re.opt  (str.to.re "\x4e34") ) (re.++ (re.opt  (str.to.re "\x4e35") ) (re.++ (re.opt  (str.to.re "\x4e36") ) (re.++ (re.opt  (str.to.re "\x4e37") ) (re.++ (re.opt  (str.to.re "\x4e38") ) (re.++ (re.opt  (str.to.re "\x4e39") ) (re.++ (re.opt  (str.to.re "\x4e3a") ) (re.++ (re.opt  (str.to.re "\x4e3b") ) (re.++ (re.opt  (str.to.re "\x4e3c") ) (re.++ (re.opt  (str.to.re "\x4e3d") ) (re.++ (re.opt  (str.to.re "\x4e3e") ) (re.++ (re.opt  (str.to.re "\x4e3f") ) (re.++ (re.opt  (str.to.re "\x4e40") ) (re.++ (re.opt  (str.to.re "\x4e41") ) (re.++ (re.opt  (str.to.re "\x4e42") ) (re.++ (re.opt  (str.to.re "\x4e43") ) (re.++ (re.opt  (str.to.re "\x4e44") ) (re.++ (re.opt  (str.to.re "\x4e45") ) (re.++ (re.opt  (str.to.re "\x4e46") ) (re.++ (re.opt  (str.to.re "\x4e47") ) (re.++ (re.opt  (str.to.re "\x4e48") ) (re.++ (re.opt  (str.to.re "\x4e49") ) (re.++ (re.opt  (str.to.re "\x4e4a") ) (re.++ (re.opt  (str.to.re "\x4e4b") ) (re.++ (re.opt  (str.to.re "\x4e4c") ) (re.++ (re.opt  (str.to.re "\x4e4d") ) (re.++ (re.opt  (str.to.re "\x4e4e") ) (re.++ (re.opt  (str.to.re "\x4e4f") ) (re.++ (re.opt  (str.to.re "\x4e50") ) (re.++ (re.opt  (str.to.re "\x4e51") ) (re.++ (re.opt  (str.to.re "\x4e52") ) (re.++ (re.opt  (str.to.re "\x4e53") ) (re.++ (re.opt  (str.to.re "\x4e54") ) (re.++ (re.opt  (str.to.re "\x4e55") ) (re.++ (re.opt  (str.to.re "\x4e56") ) (re.++ (re.opt  (str.to.re "\x4e57") ) (re.++ (re.opt  (str.to.re "\x4e58") ) (re.++ (re.opt  (str.to.re "\x4e59") ) (re.++ (re.opt  (str.to.re "\x4e5a") ) (re.++ (re.opt  (str.to.re "\x4e5b") ) (re.++ (re.opt  (str.to.re "\x4e5c") ) (re.++ (re.opt  (str.to.re "\x4e5d") ) (re.++ (re.opt  (str.to.re "\x4e5e") ) (re.++ (re.opt  (str.to.re "\x4e5f") ) (re.++ (re.opt  (str.to.re "\x4e60") ) (re.++ (re.opt  (str.to.re "\x4e61") ) (re.++ (re.opt  (str.to.re "\x4e62") ) (re.++ (re.opt  (str.to.re "\x4e63") ) (re.++ (re.opt  (str.to.re "\x4e64") ) (re.++ (re.opt  (str.to.re "\x4e65") ) (re.++ (re.opt  (str.to.re "\x4e66") ) (re.++ (re.opt  (str.to.re "\x4e67") ) (re.++ (re.opt  (str.to.re "\x4e68") ) (re.++ (re.opt  (str.to.re "\x4e69") ) (re.++ (re.opt  (str.to.re "\x4e6a") ) (re.++ (re.opt  (str.to.re "\x4e6b") ) (re.++ (re.opt  (str.to.re "\x4e6c") ) (re.++ (re.opt  (str.to.re "\x4e6d") ) (re.++ (re.opt  (str.to.re "\x4e6e") ) (re.++ (re.*  (str.to.re "\x4e6f") ) (re.++ (re.*  (str.to.re "\x4e70") ) (re.++ (re.*  (str.to.re "\x4e71") ) (re.++ (re.*  (str.to.re "\x4e72") ) (re.++ (re.*  (str.to.re "\x4e73") ) (re.++ (re.*  (str.to.re "\x4e74") ) (re.++ (re.opt  (str.to.re "\x4e75") ) (re.++ (re.opt  (str.to.re "\x4e76") ) (re.opt  (str.to.re "\x4e77") )))))))))))))))))))))))))))))))))))))))))))))))))))))))))))))))))))))))))))))))))))))))))))))))))))))))))))))))))))))))))
(check-sat)
(get-model)